NAME 
OBJSENSE MAX
ROWS
 N  OBJ
 L  packing[0]
 L  packing[1]
 L  packing[2]
 L  packing[3]
 L  packing[4]
 L  packing[5]
 L  packing[6]
 L  packing[7]
 L  packing[8]
 L  packing[9]
 L  packing[10]
 L  packing[11]
 L  packing[12]
 L  packing[13]
 L  packing[14]
 L  packing[15]
 L  packing[16]
 L  packing[17]
 L  packing[18]
 L  packing[19]
 L  packing[20]
 L  packing[21]
 L  packing[22]
 L  packing[23]
 L  packing[24]
 L  packing[25]
 L  packing[26]
 L  packing[27]
 L  packing[28]
 L  packing[29]
 L  packing[30]
 L  packing[31]
 L  packing[32]
 L  packing[33]
 L  packing[34]
 L  packing[35]
 L  packing[36]
 L  packing[37]
 L  packing[38]
 L  packing[39]
 L  packing[40]
 L  packing[41]
 L  packing[42]
 L  packing[43]
 L  packing[44]
 L  packing[45]
 L  packing[46]
 L  packing[47]
 L  packing[48]
 L  packing[49]
 L  R56     
COLUMNS
    MARKER    'MARKER'                 'INTORG'
    x[1]      OBJ       83
    x[1]      packing[0]  156
    x[1]      packing[1]  173
    x[1]      packing[2]  63
    x[1]      packing[3]  133
    x[1]      packing[5]  46
    x[1]      packing[7]  110
    x[1]      packing[10]  114
    x[1]      packing[11]  21
    x[1]      packing[13]  28
    x[1]      packing[14]  55
    x[1]      packing[15]  183
    x[1]      packing[19]  4
    x[1]      packing[20]  56
    x[1]      packing[22]  121
    x[1]      packing[23]  151
    x[1]      packing[24]  80
    x[1]      packing[25]  17
    x[1]      packing[28]  116
    x[1]      packing[29]  71
    x[1]      packing[30]  192
    x[1]      packing[31]  126
    x[1]      packing[32]  197
    x[1]      packing[33]  95
    x[1]      packing[34]  46
    x[1]      packing[35]  187
    x[1]      packing[38]  166
    x[1]      packing[39]  25
    x[1]      packing[40]  31
    x[1]      packing[42]  171
    x[1]      packing[44]  196
    x[1]      packing[47]  94
    x[1]      packing[48]  98
    x[1]      packing[49]  83
    x[2]      OBJ       145
    x[2]      packing[1]  132
    x[2]      packing[3]  157
    x[2]      packing[4]  123
    x[2]      packing[5]  160
    x[2]      packing[7]  166
    x[2]      packing[9]  170
    x[2]      packing[10]  182
    x[2]      packing[11]  83
    x[2]      packing[12]  183
    x[2]      packing[13]  169
    x[2]      packing[14]  104
    x[2]      packing[16]  35
    x[2]      packing[17]  171
    x[2]      packing[18]  27
    x[2]      packing[19]  59
    x[2]      packing[20]  151
    x[2]      packing[22]  74
    x[2]      packing[23]  56
    x[2]      packing[25]  80
    x[2]      packing[26]  107
    x[2]      packing[28]  185
    x[2]      packing[30]  54
    x[2]      packing[32]  192
    x[2]      packing[33]  7
    x[2]      packing[34]  68
    x[2]      packing[36]  25
    x[2]      packing[37]  197
    x[2]      packing[38]  1
    x[2]      packing[39]  36
    x[2]      packing[40]  171
    x[2]      packing[41]  25
    x[2]      packing[42]  11
    x[2]      packing[43]  185
    x[2]      packing[44]  27
    x[2]      packing[45]  90
    x[2]      packing[47]  19
    x[2]      packing[49]  114
    x[2]      R56       1
    x[3]      OBJ       138
    x[3]      packing[0]  140
    x[3]      packing[1]  193
    x[3]      packing[2]  18
    x[3]      packing[3]  51
    x[3]      packing[4]  162
    x[3]      packing[5]  7
    x[3]      packing[6]  42
    x[3]      packing[7]  169
    x[3]      packing[9]  29
    x[3]      packing[10]  16
    x[3]      packing[11]  8
    x[3]      packing[12]  193
    x[3]      packing[14]  92
    x[3]      packing[15]  165
    x[3]      packing[17]  20
    x[3]      packing[18]  163
    x[3]      packing[19]  57
    x[3]      packing[20]  141
    x[3]      packing[21]  86
    x[3]      packing[22]  115
    x[3]      packing[23]  182
    x[3]      packing[24]  37
    x[3]      packing[25]  26
    x[3]      packing[26]  66
    x[3]      packing[28]  91
    x[3]      packing[30]  103
    x[3]      packing[31]  72
    x[3]      packing[32]  156
    x[3]      packing[33]  149
    x[3]      packing[38]  175
    x[3]      packing[39]  139
    x[3]      packing[40]  85
    x[3]      packing[42]  111
    x[3]      packing[43]  185
    x[3]      packing[44]  166
    x[3]      packing[45]  55
    x[3]      packing[49]  26
    x[3]      R56       1
    x[4]      OBJ       147
    x[4]      packing[0]  83
    x[4]      packing[2]  71
    x[4]      packing[3]  123
    x[4]      packing[5]  41
    x[4]      packing[6]  7
    x[4]      packing[8]  45
    x[4]      packing[10]  49
    x[4]      packing[11]  44
    x[4]      packing[12]  35
    x[4]      packing[13]  43
    x[4]      packing[14]  12
    x[4]      packing[15]  152
    x[4]      packing[16]  51
    x[4]      packing[17]  130
    x[4]      packing[18]  9
    x[4]      packing[19]  46
    x[4]      packing[21]  156
    x[4]      packing[22]  184
    x[4]      packing[24]  65
    x[4]      packing[25]  121
    x[4]      packing[27]  150
    x[4]      packing[28]  135
    x[4]      packing[29]  173
    x[4]      packing[30]  73
    x[4]      packing[31]  71
    x[4]      packing[32]  198
    x[4]      packing[35]  154
    x[4]      packing[36]  65
    x[4]      packing[37]  7
    x[4]      packing[40]  24
    x[4]      packing[41]  85
    x[4]      packing[42]  42
    x[4]      packing[43]  121
    x[4]      packing[45]  161
    x[4]      packing[46]  68
    x[4]      packing[47]  117
    x[4]      packing[48]  9
    x[4]      packing[49]  106
    x[5]      OBJ       60
    x[5]      packing[0]  13
    x[5]      packing[1]  160
    x[5]      packing[2]  5
    x[5]      packing[3]  177
    x[5]      packing[4]  174
    x[5]      packing[5]  67
    x[5]      packing[6]  93
    x[5]      packing[8]  119
    x[5]      packing[11]  94
    x[5]      packing[12]  114
    x[5]      packing[13]  9
    x[5]      packing[14]  159
    x[5]      packing[15]  132
    x[5]      packing[16]  2
    x[5]      packing[17]  44
    x[5]      packing[18]  107
    x[5]      packing[19]  127
    x[5]      packing[20]  152
    x[5]      packing[21]  95
    x[5]      packing[24]  169
    x[5]      packing[25]  147
    x[5]      packing[27]  95
    x[5]      packing[28]  182
    x[5]      packing[29]  77
    x[5]      packing[30]  17
    x[5]      packing[31]  20
    x[5]      packing[33]  166
    x[5]      packing[34]  196
    x[5]      packing[35]  93
    x[5]      packing[36]  25
    x[5]      packing[39]  107
    x[5]      packing[40]  51
    x[5]      packing[41]  110
    x[5]      packing[42]  97
    x[5]      packing[43]  125
    x[5]      packing[44]  45
    x[5]      packing[45]  114
    x[5]      packing[48]  149
    x[5]      packing[49]  140
    x[6]      OBJ       27
    x[6]      packing[0]  91
    x[6]      packing[1]  30
    x[6]      packing[3]  127
    x[6]      packing[4]  20
    x[6]      packing[5]  161
    x[6]      packing[6]  189
    x[6]      packing[8]  187
    x[6]      packing[10]  110
    x[6]      packing[11]  193
    x[6]      packing[12]  128
    x[6]      packing[13]  35
    x[6]      packing[14]  79
    x[6]      packing[15]  49
    x[6]      packing[16]  159
    x[6]      packing[19]  2
    x[6]      packing[20]  56
    x[6]      packing[21]  111
    x[6]      packing[23]  69
    x[6]      packing[24]  62
    x[6]      packing[25]  192
    x[6]      packing[26]  92
    x[6]      packing[27]  10
    x[6]      packing[28]  53
    x[6]      packing[29]  138
    x[6]      packing[31]  32
    x[6]      packing[34]  161
    x[6]      packing[35]  3
    x[6]      packing[37]  89
    x[6]      packing[40]  86
    x[6]      packing[41]  101
    x[6]      packing[42]  118
    x[6]      packing[44]  83
    x[6]      packing[45]  163
    x[6]      packing[47]  111
    x[6]      packing[49]  135
    x[7]      OBJ       92
    x[7]      packing[0]  139
    x[7]      packing[1]  161
    x[7]      packing[2]  190
    x[7]      packing[3]  115
    x[7]      packing[4]  80
    x[7]      packing[5]  46
    x[7]      packing[6]  130
    x[7]      packing[7]  150
    x[7]      packing[8]  98
    x[7]      packing[9]  31
    x[7]      packing[11]  3
    x[7]      packing[13]  197
    x[7]      packing[16]  156
    x[7]      packing[17]  45
    x[7]      packing[18]  15
    x[7]      packing[19]  162
    x[7]      packing[21]  154
    x[7]      packing[22]  161
    x[7]      packing[24]  183
    x[7]      packing[25]  188
    x[7]      packing[26]  136
    x[7]      packing[27]  54
    x[7]      packing[28]  138
    x[7]      packing[30]  157
    x[7]      packing[31]  38
    x[7]      packing[32]  150
    x[7]      packing[33]  102
    x[7]      packing[34]  24
    x[7]      packing[35]  184
    x[7]      packing[36]  104
    x[7]      packing[37]  23
    x[7]      packing[38]  114
    x[7]      packing[39]  155
    x[7]      packing[40]  155
    x[7]      packing[42]  63
    x[7]      packing[43]  156
    x[7]      packing[44]  128
    x[7]      packing[46]  75
    x[7]      packing[48]  41
    x[8]      OBJ       10
    x[8]      packing[0]  24
    x[8]      packing[1]  55
    x[8]      packing[3]  4
    x[8]      packing[5]  167
    x[8]      packing[6]  144
    x[8]      packing[7]  190
    x[8]      packing[8]  159
    x[8]      packing[9]  140
    x[8]      packing[10]  111
    x[8]      packing[11]  114
    x[8]      packing[12]  166
    x[8]      packing[13]  54
    x[8]      packing[14]  38
    x[8]      packing[18]  176
    x[8]      packing[19]  3
    x[8]      packing[20]  114
    x[8]      packing[21]  143
    x[8]      packing[22]  8
    x[8]      packing[24]  169
    x[8]      packing[25]  82
    x[8]      packing[26]  51
    x[8]      packing[27]  95
    x[8]      packing[28]  106
    x[8]      packing[29]  64
    x[8]      packing[30]  134
    x[8]      packing[31]  191
    x[8]      packing[32]  186
    x[8]      packing[33]  173
    x[8]      packing[34]  26
    x[8]      packing[37]  135
    x[8]      packing[38]  147
    x[8]      packing[39]  170
    x[8]      packing[40]  130
    x[8]      packing[41]  107
    x[8]      packing[43]  147
    x[8]      packing[44]  91
    x[8]      packing[45]  166
    x[8]      packing[48]  109
    x[8]      packing[49]  159
    x[9]      OBJ       7
    x[9]      packing[0]  88
    x[9]      packing[1]  159
    x[9]      packing[2]  30
    x[9]      packing[3]  49
    x[9]      packing[4]  36
    x[9]      packing[6]  189
    x[9]      packing[7]  50
    x[9]      packing[9]  33
    x[9]      packing[10]  103
    x[9]      packing[11]  194
    x[9]      packing[13]  48
    x[9]      packing[14]  152
    x[9]      packing[15]  32
    x[9]      packing[16]  107
    x[9]      packing[17]  110
    x[9]      packing[18]  185
    x[9]      packing[19]  41
    x[9]      packing[21]  11
    x[9]      packing[22]  187
    x[9]      packing[23]  43
    x[9]      packing[24]  129
    x[9]      packing[27]  169
    x[9]      packing[28]  87
    x[9]      packing[29]  67
    x[9]      packing[31]  164
    x[9]      packing[32]  199
    x[9]      packing[33]  163
    x[9]      packing[35]  89
    x[9]      packing[36]  152
    x[9]      packing[37]  164
    x[9]      packing[38]  161
    x[9]      packing[39]  65
    x[9]      packing[40]  60
    x[9]      packing[41]  102
    x[9]      packing[42]  198
    x[9]      packing[43]  110
    x[9]      packing[44]  169
    x[9]      packing[45]  157
    x[9]      packing[46]  33
    x[9]      packing[47]  163
    x[9]      packing[49]  116
    x[10]     OBJ       169
    x[10]     packing[1]  59
    x[10]     packing[4]  91
    x[10]     packing[5]  50
    x[10]     packing[6]  147
    x[10]     packing[7]  46
    x[10]     packing[8]  30
    x[10]     packing[9]  16
    x[10]     packing[10]  64
    x[10]     packing[11]  48
    x[10]     packing[12]  182
    x[10]     packing[14]  160
    x[10]     packing[15]  158
    x[10]     packing[17]  197
    x[10]     packing[18]  175
    x[10]     packing[20]  65
    x[10]     packing[21]  59
    x[10]     packing[22]  134
    x[10]     packing[23]  132
    x[10]     packing[24]  153
    x[10]     packing[25]  167
    x[10]     packing[26]  109
    x[10]     packing[27]  82
    x[10]     packing[28]  98
    x[10]     packing[29]  197
    x[10]     packing[30]  124
    x[10]     packing[31]  46
    x[10]     packing[33]  124
    x[10]     packing[35]  45
    x[10]     packing[36]  157
    x[10]     packing[38]  192
    x[10]     packing[39]  94
    x[10]     packing[41]  160
    x[10]     packing[42]  71
    x[10]     packing[43]  100
    x[10]     packing[44]  70
    x[10]     packing[45]  76
    x[10]     packing[46]  154
    x[10]     packing[47]  7
    x[10]     packing[48]  32
    x[10]     packing[49]  43
    x[11]     OBJ       190
    x[11]     packing[1]  183
    x[11]     packing[4]  103
    x[11]     packing[5]  15
    x[11]     packing[6]  146
    x[11]     packing[7]  58
    x[11]     packing[8]  44
    x[11]     packing[9]  78
    x[11]     packing[10]  15
    x[11]     packing[13]  43
    x[11]     packing[14]  48
    x[11]     packing[15]  48
    x[11]     packing[16]  135
    x[11]     packing[17]  80
    x[11]     packing[18]  28
    x[11]     packing[19]  112
    x[11]     packing[20]  72
    x[11]     packing[21]  23
    x[11]     packing[23]  16
    x[11]     packing[25]  132
    x[11]     packing[27]  179
    x[11]     packing[28]  7
    x[11]     packing[29]  197
    x[11]     packing[32]  3
    x[11]     packing[33]  189
    x[11]     packing[35]  99
    x[11]     packing[37]  21
    x[11]     packing[38]  27
    x[11]     packing[39]  41
    x[11]     packing[41]  20
    x[11]     packing[47]  32
    x[11]     packing[48]  7
    x[11]     packing[49]  35
    x[11]     R56       1
    x[12]     OBJ       92
    x[12]     packing[0]  124
    x[12]     packing[2]  3
    x[12]     packing[3]  166
    x[12]     packing[4]  189
    x[12]     packing[5]  13
    x[12]     packing[6]  162
    x[12]     packing[7]  63
    x[12]     packing[9]  7
    x[12]     packing[10]  78
    x[12]     packing[11]  191
    x[12]     packing[12]  165
    x[12]     packing[15]  153
    x[12]     packing[19]  94
    x[12]     packing[20]  70
    x[12]     packing[21]  117
    x[12]     packing[22]  52
    x[12]     packing[24]  1
    x[12]     packing[25]  195
    x[12]     packing[26]  70
    x[12]     packing[29]  51
    x[12]     packing[30]  10
    x[12]     packing[31]  178
    x[12]     packing[32]  15
    x[12]     packing[35]  62
    x[12]     packing[37]  124
    x[12]     packing[38]  41
    x[12]     packing[42]  22
    x[12]     packing[43]  48
    x[12]     packing[46]  13
    x[12]     packing[47]  54
    x[12]     packing[48]  4
    x[12]     packing[49]  51
    x[13]     OBJ       118
    x[13]     packing[0]  114
    x[13]     packing[2]  89
    x[13]     packing[3]  114
    x[13]     packing[4]  44
    x[13]     packing[6]  92
    x[13]     packing[7]  177
    x[13]     packing[9]  48
    x[13]     packing[11]  106
    x[13]     packing[12]  93
    x[13]     packing[14]  88
    x[13]     packing[16]  134
    x[13]     packing[18]  62
    x[13]     packing[19]  188
    x[13]     packing[20]  184
    x[13]     packing[21]  105
    x[13]     packing[22]  7
    x[13]     packing[25]  18
    x[13]     packing[26]  169
    x[13]     packing[27]  44
    x[13]     packing[28]  43
    x[13]     packing[30]  12
    x[13]     packing[31]  78
    x[13]     packing[32]  177
    x[13]     packing[34]  160
    x[13]     packing[35]  170
    x[13]     packing[36]  27
    x[13]     packing[38]  75
    x[13]     packing[39]  113
    x[13]     packing[40]  44
    x[13]     packing[41]  146
    x[13]     packing[44]  156
    x[13]     packing[45]  53
    x[13]     packing[46]  196
    x[13]     packing[47]  122
    x[13]     packing[49]  161
    x[13]     R56       1
    x[14]     OBJ       111
    x[14]     packing[0]  193
    x[14]     packing[1]  63
    x[14]     packing[3]  169
    x[14]     packing[4]  113
    x[14]     packing[5]  153
    x[14]     packing[6]  167
    x[14]     packing[7]  121
    x[14]     packing[8]  56
    x[14]     packing[9]  120
    x[14]     packing[10]  3
    x[14]     packing[11]  131
    x[14]     packing[12]  144
    x[14]     packing[14]  22
    x[14]     packing[15]  97
    x[14]     packing[16]  183
    x[14]     packing[17]  40
    x[14]     packing[19]  130
    x[14]     packing[20]  167
    x[14]     packing[21]  103
    x[14]     packing[23]  33
    x[14]     packing[24]  37
    x[14]     packing[25]  173
    x[14]     packing[26]  89
    x[14]     packing[27]  64
    x[14]     packing[29]  22
    x[14]     packing[30]  193
    x[14]     packing[32]  60
    x[14]     packing[33]  171
    x[14]     packing[34]  85
    x[14]     packing[36]  34
    x[14]     packing[37]  34
    x[14]     packing[38]  100
    x[14]     packing[39]  186
    x[14]     packing[40]  154
    x[14]     packing[41]  165
    x[14]     packing[42]  113
    x[14]     packing[44]  116
    x[14]     packing[46]  113
    x[14]     packing[47]  131
    x[14]     packing[48]  16
    x[14]     R56       1
    x[15]     OBJ       193
    x[15]     packing[0]  47
    x[15]     packing[1]  24
    x[15]     packing[2]  82
    x[15]     packing[3]  5
    x[15]     packing[4]  115
    x[15]     packing[5]  72
    x[15]     packing[6]  66
    x[15]     packing[8]  163
    x[15]     packing[9]  192
    x[15]     packing[10]  128
    x[15]     packing[11]  34
    x[15]     packing[12]  63
    x[15]     packing[13]  37
    x[15]     packing[16]  60
    x[15]     packing[19]  160
    x[15]     packing[20]  90
    x[15]     packing[21]  6
    x[15]     packing[22]  173
    x[15]     packing[23]  171
    x[15]     packing[24]  100
    x[15]     packing[26]  160
    x[15]     packing[27]  109
    x[15]     packing[29]  155
    x[15]     packing[30]  36
    x[15]     packing[31]  121
    x[15]     packing[34]  165
    x[15]     packing[35]  29
    x[15]     packing[36]  26
    x[15]     packing[37]  139
    x[15]     packing[40]  83
    x[15]     packing[41]  145
    x[15]     packing[42]  3
    x[15]     packing[43]  64
    x[15]     packing[44]  35
    x[15]     packing[48]  129
    x[15]     packing[49]  137
    x[16]     OBJ       35
    x[16]     packing[1]  66
    x[16]     packing[2]  76
    x[16]     packing[3]  31
    x[16]     packing[4]  119
    x[16]     packing[5]  68
    x[16]     packing[6]  18
    x[16]     packing[8]  149
    x[16]     packing[9]  14
    x[16]     packing[10]  161
    x[16]     packing[11]  152
    x[16]     packing[12]  178
    x[16]     packing[13]  59
    x[16]     packing[14]  42
    x[16]     packing[16]  12
    x[16]     packing[17]  199
    x[16]     packing[20]  23
    x[16]     packing[22]  192
    x[16]     packing[23]  5
    x[16]     packing[24]  12
    x[16]     packing[25]  66
    x[16]     packing[26]  107
    x[16]     packing[27]  5
    x[16]     packing[28]  82
    x[16]     packing[29]  36
    x[16]     packing[30]  160
    x[16]     packing[31]  152
    x[16]     packing[32]  73
    x[16]     packing[33]  71
    x[16]     packing[34]  169
    x[16]     packing[35]  29
    x[16]     packing[36]  114
    x[16]     packing[37]  6
    x[16]     packing[38]  126
    x[16]     packing[39]  5
    x[16]     packing[41]  196
    x[16]     packing[43]  150
    x[16]     packing[44]  184
    x[16]     packing[45]  27
    x[16]     packing[46]  199
    x[16]     packing[47]  171
    x[16]     packing[48]  106
    x[17]     OBJ       2
    x[17]     packing[0]  47
    x[17]     packing[2]  164
    x[17]     packing[3]  165
    x[17]     packing[5]  113
    x[17]     packing[6]  92
    x[17]     packing[7]  22
    x[17]     packing[8]  170
    x[17]     packing[9]  129
    x[17]     packing[10]  50
    x[17]     packing[11]  149
    x[17]     packing[13]  24
    x[17]     packing[14]  190
    x[17]     packing[15]  40
    x[17]     packing[16]  100
    x[17]     packing[17]  121
    x[17]     packing[19]  18
    x[17]     packing[21]  34
    x[17]     packing[22]  86
    x[17]     packing[23]  24
    x[17]     packing[25]  190
    x[17]     packing[26]  113
    x[17]     packing[28]  47
    x[17]     packing[32]  4
    x[17]     packing[33]  51
    x[17]     packing[34]  67
    x[17]     packing[35]  149
    x[17]     packing[36]  185
    x[17]     packing[38]  144
    x[17]     packing[39]  172
    x[17]     packing[40]  22
    x[17]     packing[41]  167
    x[17]     packing[42]  36
    x[17]     packing[43]  41
    x[17]     packing[45]  129
    x[17]     packing[46]  141
    x[17]     packing[47]  13
    x[17]     packing[48]  51
    x[17]     packing[49]  153
    x[18]     OBJ       153
    x[18]     packing[0]  14
    x[18]     packing[3]  12
    x[18]     packing[4]  168
    x[18]     packing[5]  65
    x[18]     packing[6]  167
    x[18]     packing[8]  191
    x[18]     packing[9]  89
    x[18]     packing[10]  138
    x[18]     packing[11]  97
    x[18]     packing[13]  43
    x[18]     packing[16]  4
    x[18]     packing[18]  80
    x[18]     packing[20]  154
    x[18]     packing[22]  55
    x[18]     packing[24]  152
    x[18]     packing[25]  145
    x[18]     packing[26]  92
    x[18]     packing[27]  128
    x[18]     packing[28]  197
    x[18]     packing[29]  178
    x[18]     packing[30]  55
    x[18]     packing[32]  103
    x[18]     packing[33]  21
    x[18]     packing[34]  156
    x[18]     packing[35]  137
    x[18]     packing[36]  154
    x[18]     packing[37]  159
    x[18]     packing[39]  174
    x[18]     packing[41]  191
    x[18]     packing[42]  190
    x[18]     packing[43]  197
    x[18]     packing[44]  25
    x[18]     packing[45]  124
    x[18]     packing[47]  130
    x[18]     packing[48]  130
    x[18]     packing[49]  91
    x[18]     R56       1
    x[19]     OBJ       23
    x[19]     packing[5]  187
    x[19]     packing[6]  104
    x[19]     packing[9]  90
    x[19]     packing[10]  16
    x[19]     packing[11]  83
    x[19]     packing[13]  9
    x[19]     packing[15]  93
    x[19]     packing[16]  139
    x[19]     packing[17]  149
    x[19]     packing[19]  100
    x[19]     packing[20]  49
    x[19]     packing[21]  11
    x[19]     packing[22]  38
    x[19]     packing[24]  179
    x[19]     packing[25]  59
    x[19]     packing[26]  197
    x[19]     packing[27]  197
    x[19]     packing[28]  54
    x[19]     packing[29]  143
    x[19]     packing[32]  155
    x[19]     packing[34]  109
    x[19]     packing[37]  40
    x[19]     packing[38]  150
    x[19]     packing[39]  14
    x[19]     packing[40]  74
    x[19]     packing[41]  172
    x[19]     packing[43]  165
    x[19]     packing[44]  30
    x[19]     packing[45]  83
    x[19]     packing[46]  8
    x[19]     packing[47]  99
    x[19]     packing[49]  63
    x[20]     OBJ       116
    x[20]     packing[0]  188
    x[20]     packing[1]  119
    x[20]     packing[3]  6
    x[20]     packing[4]  89
    x[20]     packing[6]  151
    x[20]     packing[7]  121
    x[20]     packing[8]  183
    x[20]     packing[9]  36
    x[20]     packing[10]  149
    x[20]     packing[11]  61
    x[20]     packing[12]  45
    x[20]     packing[13]  69
    x[20]     packing[14]  139
    x[20]     packing[16]  116
    x[20]     packing[18]  51
    x[20]     packing[19]  163
    x[20]     packing[20]  176
    x[20]     packing[21]  132
    x[20]     packing[22]  75
    x[20]     packing[23]  128
    x[20]     packing[24]  96
    x[20]     packing[25]  51
    x[20]     packing[27]  186
    x[20]     packing[28]  42
    x[20]     packing[29]  42
    x[20]     packing[30]  5
    x[20]     packing[32]  168
    x[20]     packing[34]  26
    x[20]     packing[35]  2
    x[20]     packing[36]  120
    x[20]     packing[38]  100
    x[20]     packing[39]  142
    x[20]     packing[40]  79
    x[20]     packing[41]  5
    x[20]     packing[42]  144
    x[20]     packing[43]  9
    x[20]     packing[45]  43
    x[20]     packing[47]  48
    x[20]     packing[48]  172
    x[20]     packing[49]  89
    MARKER    'MARKER'                 'INTEND'
RHS
    RHS1      packing[0]  731
    RHS1      packing[1]  789
    RHS1      packing[2]  396
    RHS1      packing[3]  802
    RHS1      packing[4]  813
    RHS1      packing[5]  716
    RHS1      packing[6]  1053
    RHS1      packing[7]  722
    RHS1      packing[8]  797
    RHS1      packing[9]  611
    RHS1      packing[10]  744
    RHS1      packing[11]  903
    RHS1      packing[12]  845
    RHS1      packing[13]  434
    RHS1      packing[14]  690
    RHS1      packing[15]  651
    RHS1      packing[16]  697
    RHS1      packing[17]  653
    RHS1      packing[18]  539
    RHS1      packing[19]  733
    RHS1      packing[20]  860
    RHS1      packing[21]  673
    RHS1      packing[22]  831
    RHS1      packing[23]  505
    RHS1      packing[24]  812
    RHS1      packing[25]  1025
    RHS1      packing[26]  779
    RHS1      packing[27]  784
    RHS1      packing[28]  832
    RHS1      packing[29]  806
    RHS1      packing[30]  663
    RHS1      packing[31]  645
    RHS1      packing[32]  1018
    RHS1      packing[33]  741
    RHS1      packing[34]  729
    RHS1      packing[35]  716
    RHS1      packing[36]  594
    RHS1      packing[37]  569
    RHS1      packing[38]  860
    RHS1      packing[39]  819
    RHS1      packing[40]  625
    RHS1      packing[41]  949
    RHS1      packing[42]  695
    RHS1      packing[43]  902
    RHS1      packing[44]  761
    RHS1      packing[45]  721
    RHS1      packing[46]  500
    RHS1      packing[47]  656
    RHS1      packing[48]  527
    RHS1      packing[49]  851
    RHS1      R56       5
BOUNDS
 BV BND1      x[1]    
 BV BND1      x[2]    
 BV BND1      x[3]    
 BV BND1      x[4]    
 BV BND1      x[5]    
 BV BND1      x[6]    
 BV BND1      x[7]    
 BV BND1      x[8]    
 BV BND1      x[9]    
 BV BND1      x[10]   
 BV BND1      x[11]   
 BV BND1      x[12]   
 BV BND1      x[13]   
 BV BND1      x[14]   
 BV BND1      x[15]   
 BV BND1      x[16]   
 BV BND1      x[17]   
 BV BND1      x[18]   
 BV BND1      x[19]   
 BV BND1      x[20]   
ENDATA
